Maximize
  36 x0_0_ + 36 x0_1_ + 36 x0_2_ + 36 x0_3_ + 36 x0_4_ + 36 x0_5_ + 28 x0_6_
   + 8 x0_7_ + 8 x0_8_ + 8 x0_9_ + 360 x1_7_ + 360 x1_8_ + 360 x1_9_
   + 17 x2_7_ + 17 x2_8_ + 17 x2_9_ + 144 x3_7_ + 144 x3_8_ + 144 x3_9_
   + 18 x4_0_ + 18 x4_1_ + 18 x4_2_ + 18 x4_3_ + 18 x4_4_ + 18 x4_5_
   + 14 x4_6_ + 4 x4_7_ + 4 x4_8_ + 4 x4_9_ + 9 x5_0_ + 9 x5_1_ + 9 x5_2_
   + 9 x5_3_ + 9 x5_4_ + 9 x5_5_ + 7 x5_6_ + 2 x5_7_ + 2 x5_8_ + 2 x5_9_
   + 18 x6_0_ + 18 x6_1_ + 18 x6_2_ + 18 x6_3_ + 18 x6_4_ + 18 x6_5_
   + 14 x6_6_ + 4 x6_7_ + 4 x6_8_ + 4 x6_9_ + 18 x7_0_ + 18 x7_1_
   + 18 x7_2_ + 18 x7_3_ + 18 x7_4_ + 18 x7_5_ + 14 x7_6_ + 4 x7_7_
   + 4 x7_8_ + 4 x7_9_ + 18 x8_0_ + 18 x8_1_ + 18 x8_2_ + 18 x8_3_
   + 18 x8_4_ + 18 x8_5_ + 14 x8_6_ + 4 x8_7_ + 4 x8_8_ + 4 x8_9_
   + 54 x9_0_ + 54 x9_1_ + 54 x9_2_ + 54 x9_3_ + 54 x9_4_ + 54 x9_5_
   + 42 x9_6_ + 12 x9_7_ + 12 x9_8_ + 12 x9_9_ + 68 x10_7_ + 68 x10_8_
   + 68 x10_9_ + 36 x11_0_ + 36 x11_1_ + 36 x11_2_ + 36 x11_3_ + 36 x11_4_
   + 36 x11_5_ + 28 x11_6_ + 8 x11_7_ + 8 x11_8_ + 8 x11_9_ + 102 x12_7_
   + 102 x12_8_ + 102 x12_9_ + 18 x13_0_ + 18 x13_1_ + 18 x13_2_
   + 18 x13_3_ + 18 x13_4_ + 18 x13_5_ + 14 x13_6_ + 4 x13_7_ + 4 x13_8_
   + 4 x13_9_ + 36 x14_0_ + 36 x14_1_ + 36 x14_2_ + 36 x14_3_ + 36 x14_4_
   + 36 x14_5_ + 28 x14_6_ + 8 x14_7_ + 8 x14_8_ + 8 x14_9_ + 18 x15_0_
   + 18 x15_1_ + 18 x15_2_ + 18 x15_3_ + 18 x15_4_ + 18 x15_5_ + 14 x15_6_
   + 4 x15_7_ + 4 x15_8_ + 4 x15_9_ + 72 x16_7_ + 72 x16_8_ + 72 x16_9_
   + 288 x17_7_ + 288 x17_8_ + 288 x17_9_ + 72 x18_0_ + 72 x18_1_
   + 72 x18_2_ + 72 x18_3_ + 72 x18_4_ + 72 x18_5_ + 56 x18_6_ + 16 x18_7_
   + 16 x18_8_ + 16 x18_9_ + 45 x19_0_ + 45 x19_1_ + 45 x19_2_ + 45 x19_3_
   + 45 x19_4_ + 45 x19_5_ + 35 x19_6_ + 10 x19_7_ + 10 x19_8_ + 10 x19_9_
Subject To
 R0: x0_0_ + x0_1_ + x0_2_ + x0_3_ + x0_4_ + x0_5_ + x0_6_ + x0_7_ + x0_8_
   + x0_9_ + x0_n_ = 1
 R1: x1_6_ + x1_7_ + x1_8_ + x1_9_ + x1_n_ = 1
 R2: x2_7_ + x2_8_ + x2_9_ + x2_n_ = 1
 R3: x3_6_ + x3_7_ + x3_8_ + x3_9_ + x3_n_ = 1
 R4: x4_0_ + x4_1_ + x4_2_ + x4_3_ + x4_4_ + x4_5_ + x4_6_ + x4_7_ + x4_8_
   + x4_9_ + x4_n_ = 1
 R5: x5_0_ + x5_1_ + x5_2_ + x5_3_ + x5_4_ + x5_5_ + x5_6_ + x5_7_ + x5_8_
   + x5_9_ + x5_n_ = 1
 R6: x6_0_ + x6_1_ + x6_2_ + x6_3_ + x6_4_ + x6_5_ + x6_6_ + x6_7_ + x6_8_
   + x6_9_ + x6_n_ = 1
 R7: x7_0_ + x7_1_ + x7_2_ + x7_3_ + x7_4_ + x7_5_ + x7_6_ + x7_7_ + x7_8_
   + x7_9_ + x7_n_ = 1
 R8: x8_0_ + x8_1_ + x8_2_ + x8_3_ + x8_4_ + x8_5_ + x8_6_ + x8_7_ + x8_8_
   + x8_9_ + x8_n_ = 1
 R9: x9_0_ + x9_1_ + x9_2_ + x9_3_ + x9_4_ + x9_5_ + x9_6_ + x9_7_ + x9_8_
   + x9_9_ + x9_n_ = 1
 R10: x10_7_ + x10_8_ + x10_9_ + x10_n_ = 1
 R11: x11_0_ + x11_1_ + x11_2_ + x11_3_ + x11_4_ + x11_5_ + x11_6_ + x11_7_
   + x11_8_ + x11_9_ + x11_n_ = 1
 R12: x12_7_ + x12_8_ + x12_9_ + x12_n_ = 1
 R13: x13_0_ + x13_1_ + x13_2_ + x13_3_ + x13_4_ + x13_5_ + x13_6_ + x13_7_
   + x13_8_ + x13_9_ + x13_n_ = 1
 R14: x14_0_ + x14_1_ + x14_2_ + x14_3_ + x14_4_ + x14_5_ + x14_6_ + x14_7_
   + x14_8_ + x14_9_ + x14_n_ = 1
 R15: x15_0_ + x15_1_ + x15_2_ + x15_3_ + x15_4_ + x15_5_ + x15_6_ + x15_7_
   + x15_8_ + x15_9_ + x15_n_ = 1
 R16: x16_6_ + x16_7_ + x16_8_ + x16_9_ + x16_n_ = 1
 R17: x17_6_ + x17_7_ + x17_8_ + x17_9_ + x17_n_ = 1
 R18: x18_0_ + x18_1_ + x18_2_ + x18_3_ + x18_4_ + x18_5_ + x18_6_ + x18_7_
   + x18_8_ + x18_9_ + x18_n_ = 1
 R19: x19_0_ + x19_1_ + x19_2_ + x19_3_ + x19_4_ + x19_5_ + x19_6_ + x19_7_
   + x19_8_ + x19_9_ + x19_n_ = 1
 R20: x0_0_ + x7_0_ <= 1
 R21: x0_1_ + x7_1_ <= 1
 R22: x0_2_ + x7_2_ <= 1
 R23: x0_3_ + x7_3_ <= 1
 R24: x0_4_ + x7_4_ <= 1
 R25: x0_5_ + x7_5_ <= 1
 R26: x0_6_ + x7_6_ <= 1
 R27: x0_7_ + x7_7_ <= 1
 R28: x0_8_ + x7_8_ <= 1
 R29: x0_9_ + x7_9_ <= 1
 R30: x0_0_ + x8_0_ <= 1
 R31: x0_1_ + x8_1_ <= 1
 R32: x0_2_ + x8_2_ <= 1
 R33: x0_3_ + x8_3_ <= 1
 R34: x0_4_ + x8_4_ <= 1
 R35: x0_5_ + x8_5_ <= 1
 R36: x0_6_ + x8_6_ <= 1
 R37: x0_7_ + x8_7_ <= 1
 R38: x0_8_ + x8_8_ <= 1
 R39: x0_9_ + x8_9_ <= 1
 R40: x0_0_ + x9_0_ <= 1
 R41: x0_1_ + x9_1_ <= 1
 R42: x0_2_ + x9_2_ <= 1
 R43: x0_3_ + x9_3_ <= 1
 R44: x0_4_ + x9_4_ <= 1
 R45: x0_5_ + x9_5_ <= 1
 R46: x0_6_ + x9_6_ <= 1
 R47: x0_7_ + x9_7_ <= 1
 R48: x0_8_ + x9_8_ <= 1
 R49: x0_9_ + x9_9_ <= 1
 R50: x0_0_ + x11_0_ <= 1
 R51: x0_1_ + x11_1_ <= 1
 R52: x0_2_ + x11_2_ <= 1
 R53: x0_3_ + x11_3_ <= 1
 R54: x0_4_ + x11_4_ <= 1
 R55: x0_5_ + x11_5_ <= 1
 R56: x0_6_ + x11_6_ <= 1
 R57: x0_7_ + x11_7_ <= 1
 R58: x0_8_ + x11_8_ <= 1
 R59: x0_9_ + x11_9_ <= 1
 R60: x0_0_ + x13_0_ <= 1
 R61: x0_1_ + x13_1_ <= 1
 R62: x0_2_ + x13_2_ <= 1
 R63: x0_3_ + x13_3_ <= 1
 R64: x0_4_ + x13_4_ <= 1
 R65: x0_5_ + x13_5_ <= 1
 R66: x0_6_ + x13_6_ <= 1
 R67: x0_7_ + x13_7_ <= 1
 R68: x0_8_ + x13_8_ <= 1
 R69: x0_9_ + x13_9_ <= 1
 R70: x0_0_ + x14_0_ <= 1
 R71: x0_1_ + x14_1_ <= 1
 R72: x0_2_ + x14_2_ <= 1
 R73: x0_3_ + x14_3_ <= 1
 R74: x0_4_ + x14_4_ <= 1
 R75: x0_5_ + x14_5_ <= 1
 R76: x0_6_ + x14_6_ <= 1
 R77: x0_7_ + x14_7_ <= 1
 R78: x0_8_ + x14_8_ <= 1
 R79: x0_9_ + x14_9_ <= 1
 R80: x0_0_ + x15_0_ <= 1
 R81: x0_1_ + x15_1_ <= 1
 R82: x0_2_ + x15_2_ <= 1
 R83: x0_3_ + x15_3_ <= 1
 R84: x0_4_ + x15_4_ <= 1
 R85: x0_5_ + x15_5_ <= 1
 R86: x0_6_ + x15_6_ <= 1
 R87: x0_7_ + x15_7_ <= 1
 R88: x0_8_ + x15_8_ <= 1
 R89: x0_9_ + x15_9_ <= 1
 R90: x0_0_ + x18_0_ <= 1
 R91: x0_1_ + x18_1_ <= 1
 R92: x0_2_ + x18_2_ <= 1
 R93: x0_3_ + x18_3_ <= 1
 R94: x0_4_ + x18_4_ <= 1
 R95: x0_5_ + x18_5_ <= 1
 R96: x0_6_ + x18_6_ <= 1
 R97: x0_7_ + x18_7_ <= 1
 R98: x0_8_ + x18_8_ <= 1
 R99: x0_9_ + x18_9_ <= 1
 R100: x0_0_ + x19_0_ <= 1
 R101: x0_1_ + x19_1_ <= 1
 R102: x0_2_ + x19_2_ <= 1
 R103: x0_3_ + x19_3_ <= 1
 R104: x0_4_ + x19_4_ <= 1
 R105: x0_5_ + x19_5_ <= 1
 R106: x0_6_ + x19_6_ <= 1
 R107: x0_7_ + x19_7_ <= 1
 R108: x0_8_ + x19_8_ <= 1
 R109: x0_9_ + x19_9_ <= 1
 R110: x0_6_ + x1_6_ <= 1
 R111: x0_7_ + x1_7_ <= 1
 R112: x0_8_ + x1_8_ <= 1
 R113: x0_9_ + x1_9_ <= 1
 R114: x1_6_ + x3_6_ <= 1
 R115: x1_7_ + x3_7_ <= 1
 R116: x1_8_ + x3_8_ <= 1
 R117: x1_9_ + x3_9_ <= 1
 R118: x1_6_ + x7_6_ <= 1
 R119: x1_7_ + x7_7_ <= 1
 R120: x1_8_ + x7_8_ <= 1
 R121: x1_9_ + x7_9_ <= 1
 R122: x1_6_ + x8_6_ <= 1
 R123: x1_7_ + x8_7_ <= 1
 R124: x1_8_ + x8_8_ <= 1
 R125: x1_9_ + x8_9_ <= 1
 R126: x1_6_ + x9_6_ <= 1
 R127: x1_7_ + x9_7_ <= 1
 R128: x1_8_ + x9_8_ <= 1
 R129: x1_9_ + x9_9_ <= 1
 R130: x1_6_ + x11_6_ <= 1
 R131: x1_7_ + x11_7_ <= 1
 R132: x1_8_ + x11_8_ <= 1
 R133: x1_9_ + x11_9_ <= 1
 R134: x1_6_ + x13_6_ <= 1
 R135: x1_7_ + x13_7_ <= 1
 R136: x1_8_ + x13_8_ <= 1
 R137: x1_9_ + x13_9_ <= 1
 R138: x1_6_ + x14_6_ <= 1
 R139: x1_7_ + x14_7_ <= 1
 R140: x1_8_ + x14_8_ <= 1
 R141: x1_9_ + x14_9_ <= 1
 R142: x1_6_ + x15_6_ <= 1
 R143: x1_7_ + x15_7_ <= 1
 R144: x1_8_ + x15_8_ <= 1
 R145: x1_9_ + x15_9_ <= 1
 R146: x1_6_ + x17_6_ <= 1
 R147: x1_7_ + x17_7_ <= 1
 R148: x1_8_ + x17_8_ <= 1
 R149: x1_9_ + x17_9_ <= 1
 R150: x1_6_ + x18_6_ <= 1
 R151: x1_7_ + x18_7_ <= 1
 R152: x1_8_ + x18_8_ <= 1
 R153: x1_9_ + x18_9_ <= 1
 R154: x1_6_ + x19_6_ <= 1
 R155: x1_7_ + x19_7_ <= 1
 R156: x1_8_ + x19_8_ <= 1
 R157: x1_9_ + x19_9_ <= 1
 R158: x0_6_ + x3_6_ <= 1
 R159: x0_7_ + x3_7_ <= 1
 R160: x0_8_ + x3_8_ <= 1
 R161: x0_9_ + x3_9_ <= 1
 R162: x1_6_ + x3_6_ <= 1
 R163: x1_7_ + x3_7_ <= 1
 R164: x1_8_ + x3_8_ <= 1
 R165: x1_9_ + x3_9_ <= 1
 R166: x3_6_ + x8_6_ <= 1
 R167: x3_7_ + x8_7_ <= 1
 R168: x3_8_ + x8_8_ <= 1
 R169: x3_9_ + x8_9_ <= 1
 R170: x3_6_ + x9_6_ <= 1
 R171: x3_7_ + x9_7_ <= 1
 R172: x3_8_ + x9_8_ <= 1
 R173: x3_9_ + x9_9_ <= 1
 R174: x3_6_ + x11_6_ <= 1
 R175: x3_7_ + x11_7_ <= 1
 R176: x3_8_ + x11_8_ <= 1
 R177: x3_9_ + x11_9_ <= 1
 R178: x3_6_ + x14_6_ <= 1
 R179: x3_7_ + x14_7_ <= 1
 R180: x3_8_ + x14_8_ <= 1
 R181: x3_9_ + x14_9_ <= 1
 R182: x3_6_ + x17_6_ <= 1
 R183: x3_7_ + x17_7_ <= 1
 R184: x3_8_ + x17_8_ <= 1
 R185: x3_9_ + x17_9_ <= 1
 R186: x3_6_ + x18_6_ <= 1
 R187: x3_7_ + x18_7_ <= 1
 R188: x3_8_ + x18_8_ <= 1
 R189: x3_9_ + x18_9_ <= 1
 R190: x3_6_ + x19_6_ <= 1
 R191: x3_7_ + x19_7_ <= 1
 R192: x3_8_ + x19_8_ <= 1
 R193: x3_9_ + x19_9_ <= 1
 R194: x4_0_ + x5_0_ <= 1
 R195: x4_1_ + x5_1_ <= 1
 R196: x4_2_ + x5_2_ <= 1
 R197: x4_3_ + x5_3_ <= 1
 R198: x4_4_ + x5_4_ <= 1
 R199: x4_5_ + x5_5_ <= 1
 R200: x4_6_ + x5_6_ <= 1
 R201: x4_7_ + x5_7_ <= 1
 R202: x4_8_ + x5_8_ <= 1
 R203: x4_9_ + x5_9_ <= 1
 R204: x4_0_ + x6_0_ <= 1
 R205: x4_1_ + x6_1_ <= 1
 R206: x4_2_ + x6_2_ <= 1
 R207: x4_3_ + x6_3_ <= 1
 R208: x4_4_ + x6_4_ <= 1
 R209: x4_5_ + x6_5_ <= 1
 R210: x4_6_ + x6_6_ <= 1
 R211: x4_7_ + x6_7_ <= 1
 R212: x4_8_ + x6_8_ <= 1
 R213: x4_9_ + x6_9_ <= 1
 R214: x4_0_ + x9_0_ <= 1
 R215: x4_1_ + x9_1_ <= 1
 R216: x4_2_ + x9_2_ <= 1
 R217: x4_3_ + x9_3_ <= 1
 R218: x4_4_ + x9_4_ <= 1
 R219: x4_5_ + x9_5_ <= 1
 R220: x4_6_ + x9_6_ <= 1
 R221: x4_7_ + x9_7_ <= 1
 R222: x4_8_ + x9_8_ <= 1
 R223: x4_9_ + x9_9_ <= 1
 R224: x4_0_ + x18_0_ <= 1
 R225: x4_1_ + x18_1_ <= 1
 R226: x4_2_ + x18_2_ <= 1
 R227: x4_3_ + x18_3_ <= 1
 R228: x4_4_ + x18_4_ <= 1
 R229: x4_5_ + x18_5_ <= 1
 R230: x4_6_ + x18_6_ <= 1
 R231: x4_7_ + x18_7_ <= 1
 R232: x4_8_ + x18_8_ <= 1
 R233: x4_9_ + x18_9_ <= 1
 R234: x4_0_ + x5_0_ <= 1
 R235: x4_1_ + x5_1_ <= 1
 R236: x4_2_ + x5_2_ <= 1
 R237: x4_3_ + x5_3_ <= 1
 R238: x4_4_ + x5_4_ <= 1
 R239: x4_5_ + x5_5_ <= 1
 R240: x4_6_ + x5_6_ <= 1
 R241: x4_7_ + x5_7_ <= 1
 R242: x4_8_ + x5_8_ <= 1
 R243: x4_9_ + x5_9_ <= 1
 R244: x5_0_ + x9_0_ <= 1
 R245: x5_1_ + x9_1_ <= 1
 R246: x5_2_ + x9_2_ <= 1
 R247: x5_3_ + x9_3_ <= 1
 R248: x5_4_ + x9_4_ <= 1
 R249: x5_5_ + x9_5_ <= 1
 R250: x5_6_ + x9_6_ <= 1
 R251: x5_7_ + x9_7_ <= 1
 R252: x5_8_ + x9_8_ <= 1
 R253: x5_9_ + x9_9_ <= 1
 R254: x5_0_ + x18_0_ <= 1
 R255: x5_1_ + x18_1_ <= 1
 R256: x5_2_ + x18_2_ <= 1
 R257: x5_3_ + x18_3_ <= 1
 R258: x5_4_ + x18_4_ <= 1
 R259: x5_5_ + x18_5_ <= 1
 R260: x5_6_ + x18_6_ <= 1
 R261: x5_7_ + x18_7_ <= 1
 R262: x5_8_ + x18_8_ <= 1
 R263: x5_9_ + x18_9_ <= 1
 R264: x4_0_ + x6_0_ <= 1
 R265: x4_1_ + x6_1_ <= 1
 R266: x4_2_ + x6_2_ <= 1
 R267: x4_3_ + x6_3_ <= 1
 R268: x4_4_ + x6_4_ <= 1
 R269: x4_5_ + x6_5_ <= 1
 R270: x4_6_ + x6_6_ <= 1
 R271: x4_7_ + x6_7_ <= 1
 R272: x4_8_ + x6_8_ <= 1
 R273: x4_9_ + x6_9_ <= 1
 R274: x6_0_ + x9_0_ <= 1
 R275: x6_1_ + x9_1_ <= 1
 R276: x6_2_ + x9_2_ <= 1
 R277: x6_3_ + x9_3_ <= 1
 R278: x6_4_ + x9_4_ <= 1
 R279: x6_5_ + x9_5_ <= 1
 R280: x6_6_ + x9_6_ <= 1
 R281: x6_7_ + x9_7_ <= 1
 R282: x6_8_ + x9_8_ <= 1
 R283: x6_9_ + x9_9_ <= 1
 R284: x6_0_ + x18_0_ <= 1
 R285: x6_1_ + x18_1_ <= 1
 R286: x6_2_ + x18_2_ <= 1
 R287: x6_3_ + x18_3_ <= 1
 R288: x6_4_ + x18_4_ <= 1
 R289: x6_5_ + x18_5_ <= 1
 R290: x6_6_ + x18_6_ <= 1
 R291: x6_7_ + x18_7_ <= 1
 R292: x6_8_ + x18_8_ <= 1
 R293: x6_9_ + x18_9_ <= 1
 R294: x0_0_ + x7_0_ <= 1
 R295: x0_1_ + x7_1_ <= 1
 R296: x0_2_ + x7_2_ <= 1
 R297: x0_3_ + x7_3_ <= 1
 R298: x0_4_ + x7_4_ <= 1
 R299: x0_5_ + x7_5_ <= 1
 R300: x0_6_ + x7_6_ <= 1
 R301: x0_7_ + x7_7_ <= 1
 R302: x0_8_ + x7_8_ <= 1
 R303: x0_9_ + x7_9_ <= 1
 R304: x7_0_ + x8_0_ <= 1
 R305: x7_1_ + x8_1_ <= 1
 R306: x7_2_ + x8_2_ <= 1
 R307: x7_3_ + x8_3_ <= 1
 R308: x7_4_ + x8_4_ <= 1
 R309: x7_5_ + x8_5_ <= 1
 R310: x7_6_ + x8_6_ <= 1
 R311: x7_7_ + x8_7_ <= 1
 R312: x7_8_ + x8_8_ <= 1
 R313: x7_9_ + x8_9_ <= 1
 R314: x7_0_ + x11_0_ <= 1
 R315: x7_1_ + x11_1_ <= 1
 R316: x7_2_ + x11_2_ <= 1
 R317: x7_3_ + x11_3_ <= 1
 R318: x7_4_ + x11_4_ <= 1
 R319: x7_5_ + x11_5_ <= 1
 R320: x7_6_ + x11_6_ <= 1
 R321: x7_7_ + x11_7_ <= 1
 R322: x7_8_ + x11_8_ <= 1
 R323: x7_9_ + x11_9_ <= 1
 R324: x7_0_ + x13_0_ <= 1
 R325: x7_1_ + x13_1_ <= 1
 R326: x7_2_ + x13_2_ <= 1
 R327: x7_3_ + x13_3_ <= 1
 R328: x7_4_ + x13_4_ <= 1
 R329: x7_5_ + x13_5_ <= 1
 R330: x7_6_ + x13_6_ <= 1
 R331: x7_7_ + x13_7_ <= 1
 R332: x7_8_ + x13_8_ <= 1
 R333: x7_9_ + x13_9_ <= 1
 R334: x7_0_ + x14_0_ <= 1
 R335: x7_1_ + x14_1_ <= 1
 R336: x7_2_ + x14_2_ <= 1
 R337: x7_3_ + x14_3_ <= 1
 R338: x7_4_ + x14_4_ <= 1
 R339: x7_5_ + x14_5_ <= 1
 R340: x7_6_ + x14_6_ <= 1
 R341: x7_7_ + x14_7_ <= 1
 R342: x7_8_ + x14_8_ <= 1
 R343: x7_9_ + x14_9_ <= 1
 R344: x7_0_ + x15_0_ <= 1
 R345: x7_1_ + x15_1_ <= 1
 R346: x7_2_ + x15_2_ <= 1
 R347: x7_3_ + x15_3_ <= 1
 R348: x7_4_ + x15_4_ <= 1
 R349: x7_5_ + x15_5_ <= 1
 R350: x7_6_ + x15_6_ <= 1
 R351: x7_7_ + x15_7_ <= 1
 R352: x7_8_ + x15_8_ <= 1
 R353: x7_9_ + x15_9_ <= 1
 R354: x7_0_ + x18_0_ <= 1
 R355: x7_1_ + x18_1_ <= 1
 R356: x7_2_ + x18_2_ <= 1
 R357: x7_3_ + x18_3_ <= 1
 R358: x7_4_ + x18_4_ <= 1
 R359: x7_5_ + x18_5_ <= 1
 R360: x7_6_ + x18_6_ <= 1
 R361: x7_7_ + x18_7_ <= 1
 R362: x7_8_ + x18_8_ <= 1
 R363: x7_9_ + x18_9_ <= 1
 R364: x7_0_ + x19_0_ <= 1
 R365: x7_1_ + x19_1_ <= 1
 R366: x7_2_ + x19_2_ <= 1
 R367: x7_3_ + x19_3_ <= 1
 R368: x7_4_ + x19_4_ <= 1
 R369: x7_5_ + x19_5_ <= 1
 R370: x7_6_ + x19_6_ <= 1
 R371: x7_7_ + x19_7_ <= 1
 R372: x7_8_ + x19_8_ <= 1
 R373: x7_9_ + x19_9_ <= 1
 R374: x0_0_ + x8_0_ <= 1
 R375: x0_1_ + x8_1_ <= 1
 R376: x0_2_ + x8_2_ <= 1
 R377: x0_3_ + x8_3_ <= 1
 R378: x0_4_ + x8_4_ <= 1
 R379: x0_5_ + x8_5_ <= 1
 R380: x0_6_ + x8_6_ <= 1
 R381: x0_7_ + x8_7_ <= 1
 R382: x0_8_ + x8_8_ <= 1
 R383: x0_9_ + x8_9_ <= 1
 R384: x7_0_ + x8_0_ <= 1
 R385: x7_1_ + x8_1_ <= 1
 R386: x7_2_ + x8_2_ <= 1
 R387: x7_3_ + x8_3_ <= 1
 R388: x7_4_ + x8_4_ <= 1
 R389: x7_5_ + x8_5_ <= 1
 R390: x7_6_ + x8_6_ <= 1
 R391: x7_7_ + x8_7_ <= 1
 R392: x7_8_ + x8_8_ <= 1
 R393: x7_9_ + x8_9_ <= 1
 R394: x8_0_ + x9_0_ <= 1
 R395: x8_1_ + x9_1_ <= 1
 R396: x8_2_ + x9_2_ <= 1
 R397: x8_3_ + x9_3_ <= 1
 R398: x8_4_ + x9_4_ <= 1
 R399: x8_5_ + x9_5_ <= 1
 R400: x8_6_ + x9_6_ <= 1
 R401: x8_7_ + x9_7_ <= 1
 R402: x8_8_ + x9_8_ <= 1
 R403: x8_9_ + x9_9_ <= 1
 R404: x8_0_ + x11_0_ <= 1
 R405: x8_1_ + x11_1_ <= 1
 R406: x8_2_ + x11_2_ <= 1
 R407: x8_3_ + x11_3_ <= 1
 R408: x8_4_ + x11_4_ <= 1
 R409: x8_5_ + x11_5_ <= 1
 R410: x8_6_ + x11_6_ <= 1
 R411: x8_7_ + x11_7_ <= 1
 R412: x8_8_ + x11_8_ <= 1
 R413: x8_9_ + x11_9_ <= 1
 R414: x8_0_ + x13_0_ <= 1
 R415: x8_1_ + x13_1_ <= 1
 R416: x8_2_ + x13_2_ <= 1
 R417: x8_3_ + x13_3_ <= 1
 R418: x8_4_ + x13_4_ <= 1
 R419: x8_5_ + x13_5_ <= 1
 R420: x8_6_ + x13_6_ <= 1
 R421: x8_7_ + x13_7_ <= 1
 R422: x8_8_ + x13_8_ <= 1
 R423: x8_9_ + x13_9_ <= 1
 R424: x8_0_ + x14_0_ <= 1
 R425: x8_1_ + x14_1_ <= 1
 R426: x8_2_ + x14_2_ <= 1
 R427: x8_3_ + x14_3_ <= 1
 R428: x8_4_ + x14_4_ <= 1
 R429: x8_5_ + x14_5_ <= 1
 R430: x8_6_ + x14_6_ <= 1
 R431: x8_7_ + x14_7_ <= 1
 R432: x8_8_ + x14_8_ <= 1
 R433: x8_9_ + x14_9_ <= 1
 R434: x8_0_ + x15_0_ <= 1
 R435: x8_1_ + x15_1_ <= 1
 R436: x8_2_ + x15_2_ <= 1
 R437: x8_3_ + x15_3_ <= 1
 R438: x8_4_ + x15_4_ <= 1
 R439: x8_5_ + x15_5_ <= 1
 R440: x8_6_ + x15_6_ <= 1
 R441: x8_7_ + x15_7_ <= 1
 R442: x8_8_ + x15_8_ <= 1
 R443: x8_9_ + x15_9_ <= 1
 R444: x8_0_ + x18_0_ <= 1
 R445: x8_1_ + x18_1_ <= 1
 R446: x8_2_ + x18_2_ <= 1
 R447: x8_3_ + x18_3_ <= 1
 R448: x8_4_ + x18_4_ <= 1
 R449: x8_5_ + x18_5_ <= 1
 R450: x8_6_ + x18_6_ <= 1
 R451: x8_7_ + x18_7_ <= 1
 R452: x8_8_ + x18_8_ <= 1
 R453: x8_9_ + x18_9_ <= 1
 R454: x8_0_ + x19_0_ <= 1
 R455: x8_1_ + x19_1_ <= 1
 R456: x8_2_ + x19_2_ <= 1
 R457: x8_3_ + x19_3_ <= 1
 R458: x8_4_ + x19_4_ <= 1
 R459: x8_5_ + x19_5_ <= 1
 R460: x8_6_ + x19_6_ <= 1
 R461: x8_7_ + x19_7_ <= 1
 R462: x8_8_ + x19_8_ <= 1
 R463: x8_9_ + x19_9_ <= 1
 R464: x0_0_ + x9_0_ <= 1
 R465: x0_1_ + x9_1_ <= 1
 R466: x0_2_ + x9_2_ <= 1
 R467: x0_3_ + x9_3_ <= 1
 R468: x0_4_ + x9_4_ <= 1
 R469: x0_5_ + x9_5_ <= 1
 R470: x0_6_ + x9_6_ <= 1
 R471: x0_7_ + x9_7_ <= 1
 R472: x0_8_ + x9_8_ <= 1
 R473: x0_9_ + x9_9_ <= 1
 R474: x4_0_ + x9_0_ <= 1
 R475: x4_1_ + x9_1_ <= 1
 R476: x4_2_ + x9_2_ <= 1
 R477: x4_3_ + x9_3_ <= 1
 R478: x4_4_ + x9_4_ <= 1
 R479: x4_5_ + x9_5_ <= 1
 R480: x4_6_ + x9_6_ <= 1
 R481: x4_7_ + x9_7_ <= 1
 R482: x4_8_ + x9_8_ <= 1
 R483: x4_9_ + x9_9_ <= 1
 R484: x5_0_ + x9_0_ <= 1
 R485: x5_1_ + x9_1_ <= 1
 R486: x5_2_ + x9_2_ <= 1
 R487: x5_3_ + x9_3_ <= 1
 R488: x5_4_ + x9_4_ <= 1
 R489: x5_5_ + x9_5_ <= 1
 R490: x5_6_ + x9_6_ <= 1
 R491: x5_7_ + x9_7_ <= 1
 R492: x5_8_ + x9_8_ <= 1
 R493: x5_9_ + x9_9_ <= 1
 R494: x6_0_ + x9_0_ <= 1
 R495: x6_1_ + x9_1_ <= 1
 R496: x6_2_ + x9_2_ <= 1
 R497: x6_3_ + x9_3_ <= 1
 R498: x6_4_ + x9_4_ <= 1
 R499: x6_5_ + x9_5_ <= 1
 R500: x6_6_ + x9_6_ <= 1
 R501: x6_7_ + x9_7_ <= 1
 R502: x6_8_ + x9_8_ <= 1
 R503: x6_9_ + x9_9_ <= 1
 R504: x8_0_ + x9_0_ <= 1
 R505: x8_1_ + x9_1_ <= 1
 R506: x8_2_ + x9_2_ <= 1
 R507: x8_3_ + x9_3_ <= 1
 R508: x8_4_ + x9_4_ <= 1
 R509: x8_5_ + x9_5_ <= 1
 R510: x8_6_ + x9_6_ <= 1
 R511: x8_7_ + x9_7_ <= 1
 R512: x8_8_ + x9_8_ <= 1
 R513: x8_9_ + x9_9_ <= 1
 R514: x9_0_ + x11_0_ <= 1
 R515: x9_1_ + x11_1_ <= 1
 R516: x9_2_ + x11_2_ <= 1
 R517: x9_3_ + x11_3_ <= 1
 R518: x9_4_ + x11_4_ <= 1
 R519: x9_5_ + x11_5_ <= 1
 R520: x9_6_ + x11_6_ <= 1
 R521: x9_7_ + x11_7_ <= 1
 R522: x9_8_ + x11_8_ <= 1
 R523: x9_9_ + x11_9_ <= 1
 R524: x9_0_ + x14_0_ <= 1
 R525: x9_1_ + x14_1_ <= 1
 R526: x9_2_ + x14_2_ <= 1
 R527: x9_3_ + x14_3_ <= 1
 R528: x9_4_ + x14_4_ <= 1
 R529: x9_5_ + x14_5_ <= 1
 R530: x9_6_ + x14_6_ <= 1
 R531: x9_7_ + x14_7_ <= 1
 R532: x9_8_ + x14_8_ <= 1
 R533: x9_9_ + x14_9_ <= 1
 R534: x9_0_ + x18_0_ <= 1
 R535: x9_1_ + x18_1_ <= 1
 R536: x9_2_ + x18_2_ <= 1
 R537: x9_3_ + x18_3_ <= 1
 R538: x9_4_ + x18_4_ <= 1
 R539: x9_5_ + x18_5_ <= 1
 R540: x9_6_ + x18_6_ <= 1
 R541: x9_7_ + x18_7_ <= 1
 R542: x9_8_ + x18_8_ <= 1
 R543: x9_9_ + x18_9_ <= 1
 R544: x9_0_ + x19_0_ <= 1
 R545: x9_1_ + x19_1_ <= 1
 R546: x9_2_ + x19_2_ <= 1
 R547: x9_3_ + x19_3_ <= 1
 R548: x9_4_ + x19_4_ <= 1
 R549: x9_5_ + x19_5_ <= 1
 R550: x9_6_ + x19_6_ <= 1
 R551: x9_7_ + x19_7_ <= 1
 R552: x9_8_ + x19_8_ <= 1
 R553: x9_9_ + x19_9_ <= 1
 R554: x4_7_ + x10_7_ <= 1
 R555: x4_8_ + x10_8_ <= 1
 R556: x4_9_ + x10_9_ <= 1
 R557: x5_7_ + x10_7_ <= 1
 R558: x5_8_ + x10_8_ <= 1
 R559: x5_9_ + x10_9_ <= 1
 R560: x6_7_ + x10_7_ <= 1
 R561: x6_8_ + x10_8_ <= 1
 R562: x6_9_ + x10_9_ <= 1
 R563: x9_7_ + x10_7_ <= 1
 R564: x9_8_ + x10_8_ <= 1
 R565: x9_9_ + x10_9_ <= 1
 R566: x10_7_ + x12_7_ <= 1
 R567: x10_8_ + x12_8_ <= 1
 R568: x10_9_ + x12_9_ <= 1
 R569: x10_7_ + x17_7_ <= 1
 R570: x10_8_ + x17_8_ <= 1
 R571: x10_9_ + x17_9_ <= 1
 R572: x10_7_ + x18_7_ <= 1
 R573: x10_8_ + x18_8_ <= 1
 R574: x10_9_ + x18_9_ <= 1
 R575: x0_0_ + x11_0_ <= 1
 R576: x0_1_ + x11_1_ <= 1
 R577: x0_2_ + x11_2_ <= 1
 R578: x0_3_ + x11_3_ <= 1
 R579: x0_4_ + x11_4_ <= 1
 R580: x0_5_ + x11_5_ <= 1
 R581: x0_6_ + x11_6_ <= 1
 R582: x0_7_ + x11_7_ <= 1
 R583: x0_8_ + x11_8_ <= 1
 R584: x0_9_ + x11_9_ <= 1
 R585: x7_0_ + x11_0_ <= 1
 R586: x7_1_ + x11_1_ <= 1
 R587: x7_2_ + x11_2_ <= 1
 R588: x7_3_ + x11_3_ <= 1
 R589: x7_4_ + x11_4_ <= 1
 R590: x7_5_ + x11_5_ <= 1
 R591: x7_6_ + x11_6_ <= 1
 R592: x7_7_ + x11_7_ <= 1
 R593: x7_8_ + x11_8_ <= 1
 R594: x7_9_ + x11_9_ <= 1
 R595: x8_0_ + x11_0_ <= 1
 R596: x8_1_ + x11_1_ <= 1
 R597: x8_2_ + x11_2_ <= 1
 R598: x8_3_ + x11_3_ <= 1
 R599: x8_4_ + x11_4_ <= 1
 R600: x8_5_ + x11_5_ <= 1
 R601: x8_6_ + x11_6_ <= 1
 R602: x8_7_ + x11_7_ <= 1
 R603: x8_8_ + x11_8_ <= 1
 R604: x8_9_ + x11_9_ <= 1
 R605: x9_0_ + x11_0_ <= 1
 R606: x9_1_ + x11_1_ <= 1
 R607: x9_2_ + x11_2_ <= 1
 R608: x9_3_ + x11_3_ <= 1
 R609: x9_4_ + x11_4_ <= 1
 R610: x9_5_ + x11_5_ <= 1
 R611: x9_6_ + x11_6_ <= 1
 R612: x9_7_ + x11_7_ <= 1
 R613: x9_8_ + x11_8_ <= 1
 R614: x9_9_ + x11_9_ <= 1
 R615: x11_0_ + x13_0_ <= 1
 R616: x11_1_ + x13_1_ <= 1
 R617: x11_2_ + x13_2_ <= 1
 R618: x11_3_ + x13_3_ <= 1
 R619: x11_4_ + x13_4_ <= 1
 R620: x11_5_ + x13_5_ <= 1
 R621: x11_6_ + x13_6_ <= 1
 R622: x11_7_ + x13_7_ <= 1
 R623: x11_8_ + x13_8_ <= 1
 R624: x11_9_ + x13_9_ <= 1
 R625: x11_0_ + x14_0_ <= 1
 R626: x11_1_ + x14_1_ <= 1
 R627: x11_2_ + x14_2_ <= 1
 R628: x11_3_ + x14_3_ <= 1
 R629: x11_4_ + x14_4_ <= 1
 R630: x11_5_ + x14_5_ <= 1
 R631: x11_6_ + x14_6_ <= 1
 R632: x11_7_ + x14_7_ <= 1
 R633: x11_8_ + x14_8_ <= 1
 R634: x11_9_ + x14_9_ <= 1
 R635: x11_0_ + x15_0_ <= 1
 R636: x11_1_ + x15_1_ <= 1
 R637: x11_2_ + x15_2_ <= 1
 R638: x11_3_ + x15_3_ <= 1
 R639: x11_4_ + x15_4_ <= 1
 R640: x11_5_ + x15_5_ <= 1
 R641: x11_6_ + x15_6_ <= 1
 R642: x11_7_ + x15_7_ <= 1
 R643: x11_8_ + x15_8_ <= 1
 R644: x11_9_ + x15_9_ <= 1
 R645: x11_0_ + x18_0_ <= 1
 R646: x11_1_ + x18_1_ <= 1
 R647: x11_2_ + x18_2_ <= 1
 R648: x11_3_ + x18_3_ <= 1
 R649: x11_4_ + x18_4_ <= 1
 R650: x11_5_ + x18_5_ <= 1
 R651: x11_6_ + x18_6_ <= 1
 R652: x11_7_ + x18_7_ <= 1
 R653: x11_8_ + x18_8_ <= 1
 R654: x11_9_ + x18_9_ <= 1
 R655: x11_0_ + x19_0_ <= 1
 R656: x11_1_ + x19_1_ <= 1
 R657: x11_2_ + x19_2_ <= 1
 R658: x11_3_ + x19_3_ <= 1
 R659: x11_4_ + x19_4_ <= 1
 R660: x11_5_ + x19_5_ <= 1
 R661: x11_6_ + x19_6_ <= 1
 R662: x11_7_ + x19_7_ <= 1
 R663: x11_8_ + x19_8_ <= 1
 R664: x11_9_ + x19_9_ <= 1
 R665: x0_7_ + x12_7_ <= 1
 R666: x0_8_ + x12_8_ <= 1
 R667: x0_9_ + x12_9_ <= 1
 R668: x1_7_ + x12_7_ <= 1
 R669: x1_8_ + x12_8_ <= 1
 R670: x1_9_ + x12_9_ <= 1
 R671: x3_7_ + x12_7_ <= 1
 R672: x3_8_ + x12_8_ <= 1
 R673: x3_9_ + x12_9_ <= 1
 R674: x4_7_ + x12_7_ <= 1
 R675: x4_8_ + x12_8_ <= 1
 R676: x4_9_ + x12_9_ <= 1
 R677: x5_7_ + x12_7_ <= 1
 R678: x5_8_ + x12_8_ <= 1
 R679: x5_9_ + x12_9_ <= 1
 R680: x6_7_ + x12_7_ <= 1
 R681: x6_8_ + x12_8_ <= 1
 R682: x6_9_ + x12_9_ <= 1
 R683: x9_7_ + x12_7_ <= 1
 R684: x9_8_ + x12_8_ <= 1
 R685: x9_9_ + x12_9_ <= 1
 R686: x10_7_ + x12_7_ <= 1
 R687: x10_8_ + x12_8_ <= 1
 R688: x10_9_ + x12_9_ <= 1
 R689: x11_7_ + x12_7_ <= 1
 R690: x11_8_ + x12_8_ <= 1
 R691: x11_9_ + x12_9_ <= 1
 R692: x12_7_ + x14_7_ <= 1
 R693: x12_8_ + x14_8_ <= 1
 R694: x12_9_ + x14_9_ <= 1
 R695: x12_7_ + x17_7_ <= 1
 R696: x12_8_ + x17_8_ <= 1
 R697: x12_9_ + x17_9_ <= 1
 R698: x12_7_ + x18_7_ <= 1
 R699: x12_8_ + x18_8_ <= 1
 R700: x12_9_ + x18_9_ <= 1
 R701: x12_7_ + x19_7_ <= 1
 R702: x12_8_ + x19_8_ <= 1
 R703: x12_9_ + x19_9_ <= 1
 R704: x0_0_ + x13_0_ <= 1
 R705: x0_1_ + x13_1_ <= 1
 R706: x0_2_ + x13_2_ <= 1
 R707: x0_3_ + x13_3_ <= 1
 R708: x0_4_ + x13_4_ <= 1
 R709: x0_5_ + x13_5_ <= 1
 R710: x0_6_ + x13_6_ <= 1
 R711: x0_7_ + x13_7_ <= 1
 R712: x0_8_ + x13_8_ <= 1
 R713: x0_9_ + x13_9_ <= 1
 R714: x7_0_ + x13_0_ <= 1
 R715: x7_1_ + x13_1_ <= 1
 R716: x7_2_ + x13_2_ <= 1
 R717: x7_3_ + x13_3_ <= 1
 R718: x7_4_ + x13_4_ <= 1
 R719: x7_5_ + x13_5_ <= 1
 R720: x7_6_ + x13_6_ <= 1
 R721: x7_7_ + x13_7_ <= 1
 R722: x7_8_ + x13_8_ <= 1
 R723: x7_9_ + x13_9_ <= 1
 R724: x8_0_ + x13_0_ <= 1
 R725: x8_1_ + x13_1_ <= 1
 R726: x8_2_ + x13_2_ <= 1
 R727: x8_3_ + x13_3_ <= 1
 R728: x8_4_ + x13_4_ <= 1
 R729: x8_5_ + x13_5_ <= 1
 R730: x8_6_ + x13_6_ <= 1
 R731: x8_7_ + x13_7_ <= 1
 R732: x8_8_ + x13_8_ <= 1
 R733: x8_9_ + x13_9_ <= 1
 R734: x11_0_ + x13_0_ <= 1
 R735: x11_1_ + x13_1_ <= 1
 R736: x11_2_ + x13_2_ <= 1
 R737: x11_3_ + x13_3_ <= 1
 R738: x11_4_ + x13_4_ <= 1
 R739: x11_5_ + x13_5_ <= 1
 R740: x11_6_ + x13_6_ <= 1
 R741: x11_7_ + x13_7_ <= 1
 R742: x11_8_ + x13_8_ <= 1
 R743: x11_9_ + x13_9_ <= 1
 R744: x13_0_ + x14_0_ <= 1
 R745: x13_1_ + x14_1_ <= 1
 R746: x13_2_ + x14_2_ <= 1
 R747: x13_3_ + x14_3_ <= 1
 R748: x13_4_ + x14_4_ <= 1
 R749: x13_5_ + x14_5_ <= 1
 R750: x13_6_ + x14_6_ <= 1
 R751: x13_7_ + x14_7_ <= 1
 R752: x13_8_ + x14_8_ <= 1
 R753: x13_9_ + x14_9_ <= 1
 R754: x13_0_ + x15_0_ <= 1
 R755: x13_1_ + x15_1_ <= 1
 R756: x13_2_ + x15_2_ <= 1
 R757: x13_3_ + x15_3_ <= 1
 R758: x13_4_ + x15_4_ <= 1
 R759: x13_5_ + x15_5_ <= 1
 R760: x13_6_ + x15_6_ <= 1
 R761: x13_7_ + x15_7_ <= 1
 R762: x13_8_ + x15_8_ <= 1
 R763: x13_9_ + x15_9_ <= 1
 R764: x13_0_ + x18_0_ <= 1
 R765: x13_1_ + x18_1_ <= 1
 R766: x13_2_ + x18_2_ <= 1
 R767: x13_3_ + x18_3_ <= 1
 R768: x13_4_ + x18_4_ <= 1
 R769: x13_5_ + x18_5_ <= 1
 R770: x13_6_ + x18_6_ <= 1
 R771: x13_7_ + x18_7_ <= 1
 R772: x13_8_ + x18_8_ <= 1
 R773: x13_9_ + x18_9_ <= 1
 R774: x13_0_ + x19_0_ <= 1
 R775: x13_1_ + x19_1_ <= 1
 R776: x13_2_ + x19_2_ <= 1
 R777: x13_3_ + x19_3_ <= 1
 R778: x13_4_ + x19_4_ <= 1
 R779: x13_5_ + x19_5_ <= 1
 R780: x13_6_ + x19_6_ <= 1
 R781: x13_7_ + x19_7_ <= 1
 R782: x13_8_ + x19_8_ <= 1
 R783: x13_9_ + x19_9_ <= 1
 R784: x0_0_ + x14_0_ <= 1
 R785: x0_1_ + x14_1_ <= 1
 R786: x0_2_ + x14_2_ <= 1
 R787: x0_3_ + x14_3_ <= 1
 R788: x0_4_ + x14_4_ <= 1
 R789: x0_5_ + x14_5_ <= 1
 R790: x0_6_ + x14_6_ <= 1
 R791: x0_7_ + x14_7_ <= 1
 R792: x0_8_ + x14_8_ <= 1
 R793: x0_9_ + x14_9_ <= 1
 R794: x7_0_ + x14_0_ <= 1
 R795: x7_1_ + x14_1_ <= 1
 R796: x7_2_ + x14_2_ <= 1
 R797: x7_3_ + x14_3_ <= 1
 R798: x7_4_ + x14_4_ <= 1
 R799: x7_5_ + x14_5_ <= 1
 R800: x7_6_ + x14_6_ <= 1
 R801: x7_7_ + x14_7_ <= 1
 R802: x7_8_ + x14_8_ <= 1
 R803: x7_9_ + x14_9_ <= 1
 R804: x8_0_ + x14_0_ <= 1
 R805: x8_1_ + x14_1_ <= 1
 R806: x8_2_ + x14_2_ <= 1
 R807: x8_3_ + x14_3_ <= 1
 R808: x8_4_ + x14_4_ <= 1
 R809: x8_5_ + x14_5_ <= 1
 R810: x8_6_ + x14_6_ <= 1
 R811: x8_7_ + x14_7_ <= 1
 R812: x8_8_ + x14_8_ <= 1
 R813: x8_9_ + x14_9_ <= 1
 R814: x9_0_ + x14_0_ <= 1
 R815: x9_1_ + x14_1_ <= 1
 R816: x9_2_ + x14_2_ <= 1
 R817: x9_3_ + x14_3_ <= 1
 R818: x9_4_ + x14_4_ <= 1
 R819: x9_5_ + x14_5_ <= 1
 R820: x9_6_ + x14_6_ <= 1
 R821: x9_7_ + x14_7_ <= 1
 R822: x9_8_ + x14_8_ <= 1
 R823: x9_9_ + x14_9_ <= 1
 R824: x11_0_ + x14_0_ <= 1
 R825: x11_1_ + x14_1_ <= 1
 R826: x11_2_ + x14_2_ <= 1
 R827: x11_3_ + x14_3_ <= 1
 R828: x11_4_ + x14_4_ <= 1
 R829: x11_5_ + x14_5_ <= 1
 R830: x11_6_ + x14_6_ <= 1
 R831: x11_7_ + x14_7_ <= 1
 R832: x11_8_ + x14_8_ <= 1
 R833: x11_9_ + x14_9_ <= 1
 R834: x13_0_ + x14_0_ <= 1
 R835: x13_1_ + x14_1_ <= 1
 R836: x13_2_ + x14_2_ <= 1
 R837: x13_3_ + x14_3_ <= 1
 R838: x13_4_ + x14_4_ <= 1
 R839: x13_5_ + x14_5_ <= 1
 R840: x13_6_ + x14_6_ <= 1
 R841: x13_7_ + x14_7_ <= 1
 R842: x13_8_ + x14_8_ <= 1
 R843: x13_9_ + x14_9_ <= 1
 R844: x14_0_ + x15_0_ <= 1
 R845: x14_1_ + x15_1_ <= 1
 R846: x14_2_ + x15_2_ <= 1
 R847: x14_3_ + x15_3_ <= 1
 R848: x14_4_ + x15_4_ <= 1
 R849: x14_5_ + x15_5_ <= 1
 R850: x14_6_ + x15_6_ <= 1
 R851: x14_7_ + x15_7_ <= 1
 R852: x14_8_ + x15_8_ <= 1
 R853: x14_9_ + x15_9_ <= 1
 R854: x14_0_ + x18_0_ <= 1
 R855: x14_1_ + x18_1_ <= 1
 R856: x14_2_ + x18_2_ <= 1
 R857: x14_3_ + x18_3_ <= 1
 R858: x14_4_ + x18_4_ <= 1
 R859: x14_5_ + x18_5_ <= 1
 R860: x14_6_ + x18_6_ <= 1
 R861: x14_7_ + x18_7_ <= 1
 R862: x14_8_ + x18_8_ <= 1
 R863: x14_9_ + x18_9_ <= 1
 R864: x14_0_ + x19_0_ <= 1
 R865: x14_1_ + x19_1_ <= 1
 R866: x14_2_ + x19_2_ <= 1
 R867: x14_3_ + x19_3_ <= 1
 R868: x14_4_ + x19_4_ <= 1
 R869: x14_5_ + x19_5_ <= 1
 R870: x14_6_ + x19_6_ <= 1
 R871: x14_7_ + x19_7_ <= 1
 R872: x14_8_ + x19_8_ <= 1
 R873: x14_9_ + x19_9_ <= 1
 R874: x0_0_ + x15_0_ <= 1
 R875: x0_1_ + x15_1_ <= 1
 R876: x0_2_ + x15_2_ <= 1
 R877: x0_3_ + x15_3_ <= 1
 R878: x0_4_ + x15_4_ <= 1
 R879: x0_5_ + x15_5_ <= 1
 R880: x0_6_ + x15_6_ <= 1
 R881: x0_7_ + x15_7_ <= 1
 R882: x0_8_ + x15_8_ <= 1
 R883: x0_9_ + x15_9_ <= 1
 R884: x7_0_ + x15_0_ <= 1
 R885: x7_1_ + x15_1_ <= 1
 R886: x7_2_ + x15_2_ <= 1
 R887: x7_3_ + x15_3_ <= 1
 R888: x7_4_ + x15_4_ <= 1
 R889: x7_5_ + x15_5_ <= 1
 R890: x7_6_ + x15_6_ <= 1
 R891: x7_7_ + x15_7_ <= 1
 R892: x7_8_ + x15_8_ <= 1
 R893: x7_9_ + x15_9_ <= 1
 R894: x8_0_ + x15_0_ <= 1
 R895: x8_1_ + x15_1_ <= 1
 R896: x8_2_ + x15_2_ <= 1
 R897: x8_3_ + x15_3_ <= 1
 R898: x8_4_ + x15_4_ <= 1
 R899: x8_5_ + x15_5_ <= 1
 R900: x8_6_ + x15_6_ <= 1
 R901: x8_7_ + x15_7_ <= 1
 R902: x8_8_ + x15_8_ <= 1
 R903: x8_9_ + x15_9_ <= 1
 R904: x11_0_ + x15_0_ <= 1
 R905: x11_1_ + x15_1_ <= 1
 R906: x11_2_ + x15_2_ <= 1
 R907: x11_3_ + x15_3_ <= 1
 R908: x11_4_ + x15_4_ <= 1
 R909: x11_5_ + x15_5_ <= 1
 R910: x11_6_ + x15_6_ <= 1
 R911: x11_7_ + x15_7_ <= 1
 R912: x11_8_ + x15_8_ <= 1
 R913: x11_9_ + x15_9_ <= 1
 R914: x13_0_ + x15_0_ <= 1
 R915: x13_1_ + x15_1_ <= 1
 R916: x13_2_ + x15_2_ <= 1
 R917: x13_3_ + x15_3_ <= 1
 R918: x13_4_ + x15_4_ <= 1
 R919: x13_5_ + x15_5_ <= 1
 R920: x13_6_ + x15_6_ <= 1
 R921: x13_7_ + x15_7_ <= 1
 R922: x13_8_ + x15_8_ <= 1
 R923: x13_9_ + x15_9_ <= 1
 R924: x14_0_ + x15_0_ <= 1
 R925: x14_1_ + x15_1_ <= 1
 R926: x14_2_ + x15_2_ <= 1
 R927: x14_3_ + x15_3_ <= 1
 R928: x14_4_ + x15_4_ <= 1
 R929: x14_5_ + x15_5_ <= 1
 R930: x14_6_ + x15_6_ <= 1
 R931: x14_7_ + x15_7_ <= 1
 R932: x14_8_ + x15_8_ <= 1
 R933: x14_9_ + x15_9_ <= 1
 R934: x15_0_ + x18_0_ <= 1
 R935: x15_1_ + x18_1_ <= 1
 R936: x15_2_ + x18_2_ <= 1
 R937: x15_3_ + x18_3_ <= 1
 R938: x15_4_ + x18_4_ <= 1
 R939: x15_5_ + x18_5_ <= 1
 R940: x15_6_ + x18_6_ <= 1
 R941: x15_7_ + x18_7_ <= 1
 R942: x15_8_ + x18_8_ <= 1
 R943: x15_9_ + x18_9_ <= 1
 R944: x15_0_ + x19_0_ <= 1
 R945: x15_1_ + x19_1_ <= 1
 R946: x15_2_ + x19_2_ <= 1
 R947: x15_3_ + x19_3_ <= 1
 R948: x15_4_ + x19_4_ <= 1
 R949: x15_5_ + x19_5_ <= 1
 R950: x15_6_ + x19_6_ <= 1
 R951: x15_7_ + x19_7_ <= 1
 R952: x15_8_ + x19_8_ <= 1
 R953: x15_9_ + x19_9_ <= 1
 R954: x0_6_ + x17_6_ <= 1
 R955: x0_7_ + x17_7_ <= 1
 R956: x0_8_ + x17_8_ <= 1
 R957: x0_9_ + x17_9_ <= 1
 R958: x1_6_ + x17_6_ <= 1
 R959: x1_7_ + x17_7_ <= 1
 R960: x1_8_ + x17_8_ <= 1
 R961: x1_9_ + x17_9_ <= 1
 R962: x3_6_ + x17_6_ <= 1
 R963: x3_7_ + x17_7_ <= 1
 R964: x3_8_ + x17_8_ <= 1
 R965: x3_9_ + x17_9_ <= 1
 R966: x4_6_ + x17_6_ <= 1
 R967: x4_7_ + x17_7_ <= 1
 R968: x4_8_ + x17_8_ <= 1
 R969: x4_9_ + x17_9_ <= 1
 R970: x5_6_ + x17_6_ <= 1
 R971: x5_7_ + x17_7_ <= 1
 R972: x5_8_ + x17_8_ <= 1
 R973: x5_9_ + x17_9_ <= 1
 R974: x6_6_ + x17_6_ <= 1
 R975: x6_7_ + x17_7_ <= 1
 R976: x6_8_ + x17_8_ <= 1
 R977: x6_9_ + x17_9_ <= 1
 R978: x9_6_ + x17_6_ <= 1
 R979: x9_7_ + x17_7_ <= 1
 R980: x9_8_ + x17_8_ <= 1
 R981: x9_9_ + x17_9_ <= 1
 R982: x11_6_ + x17_6_ <= 1
 R983: x11_7_ + x17_7_ <= 1
 R984: x11_8_ + x17_8_ <= 1
 R985: x11_9_ + x17_9_ <= 1
 R986: x14_6_ + x17_6_ <= 1
 R987: x14_7_ + x17_7_ <= 1
 R988: x14_8_ + x17_8_ <= 1
 R989: x14_9_ + x17_9_ <= 1
 R990: x17_6_ + x18_6_ <= 1
 R991: x17_7_ + x18_7_ <= 1
 R992: x17_8_ + x18_8_ <= 1
 R993: x17_9_ + x18_9_ <= 1
 R994: x17_6_ + x19_6_ <= 1
 R995: x17_7_ + x19_7_ <= 1
 R996: x17_8_ + x19_8_ <= 1
 R997: x17_9_ + x19_9_ <= 1
 R998: x0_0_ + x18_0_ <= 1
 R999: x0_1_ + x18_1_ <= 1
 R1000: x0_2_ + x18_2_ <= 1
 R1001: x0_3_ + x18_3_ <= 1
 R1002: x0_4_ + x18_4_ <= 1
 R1003: x0_5_ + x18_5_ <= 1
 R1004: x0_6_ + x18_6_ <= 1
 R1005: x0_7_ + x18_7_ <= 1
 R1006: x0_8_ + x18_8_ <= 1
 R1007: x0_9_ + x18_9_ <= 1
 R1008: x4_0_ + x18_0_ <= 1
 R1009: x4_1_ + x18_1_ <= 1
 R1010: x4_2_ + x18_2_ <= 1
 R1011: x4_3_ + x18_3_ <= 1
 R1012: x4_4_ + x18_4_ <= 1
 R1013: x4_5_ + x18_5_ <= 1
 R1014: x4_6_ + x18_6_ <= 1
 R1015: x4_7_ + x18_7_ <= 1
 R1016: x4_8_ + x18_8_ <= 1
 R1017: x4_9_ + x18_9_ <= 1
 R1018: x5_0_ + x18_0_ <= 1
 R1019: x5_1_ + x18_1_ <= 1
 R1020: x5_2_ + x18_2_ <= 1
 R1021: x5_3_ + x18_3_ <= 1
 R1022: x5_4_ + x18_4_ <= 1
 R1023: x5_5_ + x18_5_ <= 1
 R1024: x5_6_ + x18_6_ <= 1
 R1025: x5_7_ + x18_7_ <= 1
 R1026: x5_8_ + x18_8_ <= 1
 R1027: x5_9_ + x18_9_ <= 1
 R1028: x6_0_ + x18_0_ <= 1
 R1029: x6_1_ + x18_1_ <= 1
 R1030: x6_2_ + x18_2_ <= 1
 R1031: x6_3_ + x18_3_ <= 1
 R1032: x6_4_ + x18_4_ <= 1
 R1033: x6_5_ + x18_5_ <= 1
 R1034: x6_6_ + x18_6_ <= 1
 R1035: x6_7_ + x18_7_ <= 1
 R1036: x6_8_ + x18_8_ <= 1
 R1037: x6_9_ + x18_9_ <= 1
 R1038: x7_0_ + x18_0_ <= 1
 R1039: x7_1_ + x18_1_ <= 1
 R1040: x7_2_ + x18_2_ <= 1
 R1041: x7_3_ + x18_3_ <= 1
 R1042: x7_4_ + x18_4_ <= 1
 R1043: x7_5_ + x18_5_ <= 1
 R1044: x7_6_ + x18_6_ <= 1
 R1045: x7_7_ + x18_7_ <= 1
 R1046: x7_8_ + x18_8_ <= 1
 R1047: x7_9_ + x18_9_ <= 1
 R1048: x8_0_ + x18_0_ <= 1
 R1049: x8_1_ + x18_1_ <= 1
 R1050: x8_2_ + x18_2_ <= 1
 R1051: x8_3_ + x18_3_ <= 1
 R1052: x8_4_ + x18_4_ <= 1
 R1053: x8_5_ + x18_5_ <= 1
 R1054: x8_6_ + x18_6_ <= 1
 R1055: x8_7_ + x18_7_ <= 1
 R1056: x8_8_ + x18_8_ <= 1
 R1057: x8_9_ + x18_9_ <= 1
 R1058: x9_0_ + x18_0_ <= 1
 R1059: x9_1_ + x18_1_ <= 1
 R1060: x9_2_ + x18_2_ <= 1
 R1061: x9_3_ + x18_3_ <= 1
 R1062: x9_4_ + x18_4_ <= 1
 R1063: x9_5_ + x18_5_ <= 1
 R1064: x9_6_ + x18_6_ <= 1
 R1065: x9_7_ + x18_7_ <= 1
 R1066: x9_8_ + x18_8_ <= 1
 R1067: x9_9_ + x18_9_ <= 1
 R1068: x11_0_ + x18_0_ <= 1
 R1069: x11_1_ + x18_1_ <= 1
 R1070: x11_2_ + x18_2_ <= 1
 R1071: x11_3_ + x18_3_ <= 1
 R1072: x11_4_ + x18_4_ <= 1
 R1073: x11_5_ + x18_5_ <= 1
 R1074: x11_6_ + x18_6_ <= 1
 R1075: x11_7_ + x18_7_ <= 1
 R1076: x11_8_ + x18_8_ <= 1
 R1077: x11_9_ + x18_9_ <= 1
 R1078: x13_0_ + x18_0_ <= 1
 R1079: x13_1_ + x18_1_ <= 1
 R1080: x13_2_ + x18_2_ <= 1
 R1081: x13_3_ + x18_3_ <= 1
 R1082: x13_4_ + x18_4_ <= 1
 R1083: x13_5_ + x18_5_ <= 1
 R1084: x13_6_ + x18_6_ <= 1
 R1085: x13_7_ + x18_7_ <= 1
 R1086: x13_8_ + x18_8_ <= 1
 R1087: x13_9_ + x18_9_ <= 1
 R1088: x14_0_ + x18_0_ <= 1
 R1089: x14_1_ + x18_1_ <= 1
 R1090: x14_2_ + x18_2_ <= 1
 R1091: x14_3_ + x18_3_ <= 1
 R1092: x14_4_ + x18_4_ <= 1
 R1093: x14_5_ + x18_5_ <= 1
 R1094: x14_6_ + x18_6_ <= 1
 R1095: x14_7_ + x18_7_ <= 1
 R1096: x14_8_ + x18_8_ <= 1
 R1097: x14_9_ + x18_9_ <= 1
 R1098: x15_0_ + x18_0_ <= 1
 R1099: x15_1_ + x18_1_ <= 1
 R1100: x15_2_ + x18_2_ <= 1
 R1101: x15_3_ + x18_3_ <= 1
 R1102: x15_4_ + x18_4_ <= 1
 R1103: x15_5_ + x18_5_ <= 1
 R1104: x15_6_ + x18_6_ <= 1
 R1105: x15_7_ + x18_7_ <= 1
 R1106: x15_8_ + x18_8_ <= 1
 R1107: x15_9_ + x18_9_ <= 1
 R1108: x18_0_ + x19_0_ <= 1
 R1109: x18_1_ + x19_1_ <= 1
 R1110: x18_2_ + x19_2_ <= 1
 R1111: x18_3_ + x19_3_ <= 1
 R1112: x18_4_ + x19_4_ <= 1
 R1113: x18_5_ + x19_5_ <= 1
 R1114: x18_6_ + x19_6_ <= 1
 R1115: x18_7_ + x19_7_ <= 1
 R1116: x18_8_ + x19_8_ <= 1
 R1117: x18_9_ + x19_9_ <= 1
 R1118: x0_0_ + x19_0_ <= 1
 R1119: x0_1_ + x19_1_ <= 1
 R1120: x0_2_ + x19_2_ <= 1
 R1121: x0_3_ + x19_3_ <= 1
 R1122: x0_4_ + x19_4_ <= 1
 R1123: x0_5_ + x19_5_ <= 1
 R1124: x0_6_ + x19_6_ <= 1
 R1125: x0_7_ + x19_7_ <= 1
 R1126: x0_8_ + x19_8_ <= 1
 R1127: x0_9_ + x19_9_ <= 1
 R1128: x7_0_ + x19_0_ <= 1
 R1129: x7_1_ + x19_1_ <= 1
 R1130: x7_2_ + x19_2_ <= 1
 R1131: x7_3_ + x19_3_ <= 1
 R1132: x7_4_ + x19_4_ <= 1
 R1133: x7_5_ + x19_5_ <= 1
 R1134: x7_6_ + x19_6_ <= 1
 R1135: x7_7_ + x19_7_ <= 1
 R1136: x7_8_ + x19_8_ <= 1
 R1137: x7_9_ + x19_9_ <= 1
 R1138: x8_0_ + x19_0_ <= 1
 R1139: x8_1_ + x19_1_ <= 1
 R1140: x8_2_ + x19_2_ <= 1
 R1141: x8_3_ + x19_3_ <= 1
 R1142: x8_4_ + x19_4_ <= 1
 R1143: x8_5_ + x19_5_ <= 1
 R1144: x8_6_ + x19_6_ <= 1
 R1145: x8_7_ + x19_7_ <= 1
 R1146: x8_8_ + x19_8_ <= 1
 R1147: x8_9_ + x19_9_ <= 1
 R1148: x9_0_ + x19_0_ <= 1
 R1149: x9_1_ + x19_1_ <= 1
 R1150: x9_2_ + x19_2_ <= 1
 R1151: x9_3_ + x19_3_ <= 1
 R1152: x9_4_ + x19_4_ <= 1
 R1153: x9_5_ + x19_5_ <= 1
 R1154: x9_6_ + x19_6_ <= 1
 R1155: x9_7_ + x19_7_ <= 1
 R1156: x9_8_ + x19_8_ <= 1
 R1157: x9_9_ + x19_9_ <= 1
 R1158: x11_0_ + x19_0_ <= 1
 R1159: x11_1_ + x19_1_ <= 1
 R1160: x11_2_ + x19_2_ <= 1
 R1161: x11_3_ + x19_3_ <= 1
 R1162: x11_4_ + x19_4_ <= 1
 R1163: x11_5_ + x19_5_ <= 1
 R1164: x11_6_ + x19_6_ <= 1
 R1165: x11_7_ + x19_7_ <= 1
 R1166: x11_8_ + x19_8_ <= 1
 R1167: x11_9_ + x19_9_ <= 1
 R1168: x13_0_ + x19_0_ <= 1
 R1169: x13_1_ + x19_1_ <= 1
 R1170: x13_2_ + x19_2_ <= 1
 R1171: x13_3_ + x19_3_ <= 1
 R1172: x13_4_ + x19_4_ <= 1
 R1173: x13_5_ + x19_5_ <= 1
 R1174: x13_6_ + x19_6_ <= 1
 R1175: x13_7_ + x19_7_ <= 1
 R1176: x13_8_ + x19_8_ <= 1
 R1177: x13_9_ + x19_9_ <= 1
 R1178: x14_0_ + x19_0_ <= 1
 R1179: x14_1_ + x19_1_ <= 1
 R1180: x14_2_ + x19_2_ <= 1
 R1181: x14_3_ + x19_3_ <= 1
 R1182: x14_4_ + x19_4_ <= 1
 R1183: x14_5_ + x19_5_ <= 1
 R1184: x14_6_ + x19_6_ <= 1
 R1185: x14_7_ + x19_7_ <= 1
 R1186: x14_8_ + x19_8_ <= 1
 R1187: x14_9_ + x19_9_ <= 1
 R1188: x15_0_ + x19_0_ <= 1
 R1189: x15_1_ + x19_1_ <= 1
 R1190: x15_2_ + x19_2_ <= 1
 R1191: x15_3_ + x19_3_ <= 1
 R1192: x15_4_ + x19_4_ <= 1
 R1193: x15_5_ + x19_5_ <= 1
 R1194: x15_6_ + x19_6_ <= 1
 R1195: x15_7_ + x19_7_ <= 1
 R1196: x15_8_ + x19_8_ <= 1
 R1197: x15_9_ + x19_9_ <= 1
 R1198: x18_0_ + x19_0_ <= 1
 R1199: x18_1_ + x19_1_ <= 1
 R1200: x18_2_ + x19_2_ <= 1
 R1201: x18_3_ + x19_3_ <= 1
 R1202: x18_4_ + x19_4_ <= 1
 R1203: x18_5_ + x19_5_ <= 1
 R1204: x18_6_ + x19_6_ <= 1
 R1205: x18_7_ + x19_7_ <= 1
 R1206: x18_8_ + x19_8_ <= 1
 R1207: x18_9_ + x19_9_ <= 1
 R1208: <= 1
 R1209: 36 x0_0_ + 36 x0_1_ + 36 x0_2_ + 36 x0_3_ + 36 x0_4_ + 36 x0_5_
   + 28 x0_6_ + 8 x0_7_ + 8 x0_8_ + 8 x0_9_ + 360 x1_7_ + 360 x1_8_
   + 360 x1_9_ + 17 x2_7_ + 17 x2_8_ + 17 x2_9_ + 144 x3_7_ + 144 x3_8_
   + 144 x3_9_ + 18 x4_0_ + 18 x4_1_ + 18 x4_2_ + 18 x4_3_ + 18 x4_4_
   + 18 x4_5_ + 14 x4_6_ + 4 x4_7_ + 4 x4_8_ + 4 x4_9_ + 9 x5_0_ + 9 x5_1_
   + 9 x5_2_ + 9 x5_3_ + 9 x5_4_ + 9 x5_5_ + 7 x5_6_ + 2 x5_7_ + 2 x5_8_
   + 2 x5_9_ + 18 x6_0_ + 18 x6_1_ + 18 x6_2_ + 18 x6_3_ + 18 x6_4_
   + 18 x6_5_ + 14 x6_6_ + 4 x6_7_ + 4 x6_8_ + 4 x6_9_ + 18 x7_0_
   + 18 x7_1_ + 18 x7_2_ + 18 x7_3_ + 18 x7_4_ + 18 x7_5_ + 14 x7_6_
   + 4 x7_7_ + 4 x7_8_ + 4 x7_9_ + 18 x8_0_ + 18 x8_1_ + 18 x8_2_
   + 18 x8_3_ + 18 x8_4_ + 18 x8_5_ + 14 x8_6_ + 4 x8_7_ + 4 x8_8_
   + 4 x8_9_ + 54 x9_0_ + 54 x9_1_ + 54 x9_2_ + 54 x9_3_ + 54 x9_4_
   + 54 x9_5_ + 42 x9_6_ + 12 x9_7_ + 12 x9_8_ + 12 x9_9_ + 68 x10_7_
   + 68 x10_8_ + 68 x10_9_ + 36 x11_0_ + 36 x11_1_ + 36 x11_2_ + 36 x11_3_
   + 36 x11_4_ + 36 x11_5_ + 28 x11_6_ + 8 x11_7_ + 8 x11_8_ + 8 x11_9_
   + 102 x12_7_ + 102 x12_8_ + 102 x12_9_ + 18 x13_0_ + 18 x13_1_
   + 18 x13_2_ + 18 x13_3_ + 18 x13_4_ + 18 x13_5_ + 14 x13_6_ + 4 x13_7_
   + 4 x13_8_ + 4 x13_9_ + 36 x14_0_ + 36 x14_1_ + 36 x14_2_ + 36 x14_3_
   + 36 x14_4_ + 36 x14_5_ + 28 x14_6_ + 8 x14_7_ + 8 x14_8_ + 8 x14_9_
   + 18 x15_0_ + 18 x15_1_ + 18 x15_2_ + 18 x15_3_ + 18 x15_4_ + 18 x15_5_
   + 14 x15_6_ + 4 x15_7_ + 4 x15_8_ + 4 x15_9_ + 72 x16_7_ + 72 x16_8_
   + 72 x16_9_ + 288 x17_7_ + 288 x17_8_ + 288 x17_9_ + 72 x18_0_
   + 72 x18_1_ + 72 x18_2_ + 72 x18_3_ + 72 x18_4_ + 72 x18_5_ + 56 x18_6_
   + 16 x18_7_ + 16 x18_8_ + 16 x18_9_ + 45 x19_0_ + 45 x19_1_ + 45 x19_2_
   + 45 x19_3_ + 45 x19_4_ + 45 x19_5_ + 35 x19_6_ + 10 x19_7_ + 10 x19_8_
   + 10 x19_9_ >= 1313
 R1210: x0_5_ + x1_7_ + x2_7_ + x3_9_ + x4_0_ + x5_1_ + x6_1_ + x7_9_
   + x8_8_ + x9_4_ + x10_7_ + x11_2_ + x12_n_ + x13_6_ + x14_0_ + x15_4_
   + x16_8_ + x17_8_ + x18_3_ + x19_1_ <= 19
 R1211: x0_5_ + x1_7_ + x2_9_ + x3_8_ + x4_0_ + x5_1_ + x6_1_ + x7_8_
   + x8_9_ + x9_4_ + x10_7_ + x11_2_ + x12_n_ + x13_6_ + x14_1_ + x15_4_
   + x16_7_ + x17_9_ + x18_3_ + x19_0_ <= 19
 R1212: x0_5_ + x1_7_ + x2_8_ + x3_8_ + x4_0_ + x5_1_ + x6_1_ + x7_8_
   + x8_9_ + x9_4_ + x10_7_ + x11_2_ + x12_n_ + x13_6_ + x14_1_ + x15_4_
   + x16_9_ + x17_9_ + x18_3_ + x19_0_ <= 19
 R1213: x0_1_ + x1_8_ + x2_7_ + x3_7_ + x4_1_ + x5_0_ + x6_0_ + x7_7_
   + x8_9_ + x9_4_ + x10_7_ + x11_0_ + x12_n_ + x13_6_ + x14_5_ + x15_4_
   + x16_7_ + x17_9_ + x18_3_ + x19_2_ <= 19
Bounds
Binaries
 x0_0_ x0_1_ x0_2_ x0_3_ x0_4_ x0_5_ x0_6_ x0_7_ x0_8_ x0_9_ x0_n_ x1_6_
 x1_7_ x1_8_ x1_9_ x1_n_ x2_7_ x2_8_ x2_9_ x2_n_ x3_6_ x3_7_ x3_8_ x3_9_
 x3_n_ x4_0_ x4_1_ x4_2_ x4_3_ x4_4_ x4_5_ x4_6_ x4_7_ x4_8_ x4_9_ x4_n_
 x5_0_ x5_1_ x5_2_ x5_3_ x5_4_ x5_5_ x5_6_ x5_7_ x5_8_ x5_9_ x5_n_ x6_0_
 x6_1_ x6_2_ x6_3_ x6_4_ x6_5_ x6_6_ x6_7_ x6_8_ x6_9_ x6_n_ x7_0_ x7_1_
 x7_2_ x7_3_ x7_4_ x7_5_ x7_6_ x7_7_ x7_8_ x7_9_ x7_n_ x8_0_ x8_1_ x8_2_
 x8_3_ x8_4_ x8_5_ x8_6_ x8_7_ x8_8_ x8_9_ x8_n_ x9_0_ x9_1_ x9_2_ x9_3_
 x9_4_ x9_5_ x9_6_ x9_7_ x9_8_ x9_9_ x9_n_ x10_7_ x10_8_ x10_9_ x10_n_
 x11_0_ x11_1_ x11_2_ x11_3_ x11_4_ x11_5_ x11_6_ x11_7_ x11_8_ x11_9_
 x11_n_ x12_7_ x12_8_ x12_9_ x12_n_ x13_0_ x13_1_ x13_2_ x13_3_ x13_4_
 x13_5_ x13_6_ x13_7_ x13_8_ x13_9_ x13_n_ x14_0_ x14_1_ x14_2_ x14_3_
 x14_4_ x14_5_ x14_6_ x14_7_ x14_8_ x14_9_ x14_n_ x15_0_ x15_1_ x15_2_
 x15_3_ x15_4_ x15_5_ x15_6_ x15_7_ x15_8_ x15_9_ x15_n_ x16_6_ x16_7_
 x16_8_ x16_9_ x16_n_ x17_6_ x17_7_ x17_8_ x17_9_ x17_n_ x18_0_ x18_1_
 x18_2_ x18_3_ x18_4_ x18_5_ x18_6_ x18_7_ x18_8_ x18_9_ x18_n_ x19_0_
 x19_1_ x19_2_ x19_3_ x19_4_ x19_5_ x19_6_ x19_7_ x19_8_ x19_9_ x19_n_
End
